
Gurobi 11.0.1 (win64) logging started Mon May 13 15:00:50 2024

Set parameter LogFile to value "output/solver_log20.txt"
Gurobi Optimizer version 11.0.1 build v11.0.1rc0 (win64 - Windows 11.0 (22631.2))

CPU model: 11th Gen Intel(R) Core(TM) i7-1165G7 @ 2.80GHz, instruction set [SSE2|AVX|AVX2|AVX512]
Thread count: 4 physical cores, 8 logical processors, using up to 8 threads

Optimize a model with 1515 rows, 658 columns and 27557 nonzeros
Model fingerprint: 0x0c700a6c
Variable types: 88 continuous, 570 integer (570 binary)
Coefficient statistics:
  Matrix range     [4e-01, 1e+05]
  Objective range  [1e+00, 1e+02]
  Bounds range     [1e+00, 1e+00]
  RHS range        [1e-02, 1e+05]

User MIP start produced solution with objective 58543.5 (0.01s)
User MIP start produced solution with objective 58543.5 (0.01s)
Loaded user MIP start with objective 58543.5

Presolve removed 300 rows and 304 columns
Presolve time: 0.04s
Presolved: 1215 rows, 354 columns, 24966 nonzeros
Variable types: 83 continuous, 271 integer (270 binary)

Root relaxation: objective 5.967785e+04, 802 iterations, 0.03 seconds (0.05 work units)

    Nodes    |    Current Node    |     Objective Bounds      |     Work
 Expl Unexpl |  Obj  Depth IntInf | Incumbent    BestBd   Gap | It/Node Time

     0     0 59677.8462    0   70 58543.4824 59677.8462  1.94%     -    0s
     0     0 59677.8424    0   70 58543.4824 59677.8424  1.94%     -    0s
     0     2 59677.8424    0   64 58543.4824 59677.8424  1.94%     -    0s
  1051   724 infeasible   76      58543.4824 59544.9038  1.71%   197    5s
  1754   962 58664.8321   57   70 58543.4824 59480.6576  1.60%   151   10s
  4764  1689 59196.5551   70   69 58543.4824 59480.6576  1.60%  95.7   15s
  8664  3432 59480.6576   67   76 58543.4824 59480.6576  1.60%  77.3   20s
 12424  4970 infeasible   63      58543.4824 59480.6576  1.60%  72.1   25s
 16860  6680 59480.6576   48   61 58543.4824 59480.6576  1.60%  68.0   30s
 20837  8292 59480.6576   80   54 58543.4824 59480.6576  1.60%  64.7   35s
 26290 10394 58626.0544   65   89 58543.4824 59480.6576  1.60%  61.5   40s
 30292 12105 58615.6888   84   31 58543.4824 59480.6576  1.60%  61.9   45s
 34245 13818 59196.5551   39   59 58543.4824 59480.6576  1.60%  61.6   50s
 35749 14538 59480.6576   61   74 58543.4824 59480.6576  1.60%  62.3   55s
 40886 16568 58563.0594   52   72 58543.4824 59480.6576  1.60%  61.7   60s

Cutting planes:
  MIR: 1

Explored 41052 nodes (2538739 simplex iterations) in 60.01 seconds (155.74 work units)
Thread count was 8 (of 8 available processors)

Solution count 2: 58543.5 58543.5 

Time limit reached
Best objective 5.854348237962e+04, best bound 5.948065760196e+04, gap 1.6008%
